nK = 2237;
nT = 8;
nI = 21;
L = 29;
TT = 481;
np = 1;
nc = 3;
b = [31, 46, 66, 41, 57, 29, 44, 31, 41, 31, 51, 28, 27, 51, 46, 56, 34, 69, 48, 58, 48];
d = [141, 74, 121, 147, 100, 45, 94, 130, 89, 71, 122, 140, 86, 101, 70, 146, 117, 150, 88, 148, 104];
m = [1.7, 1.9, 1.5, 2.5, 2.5, 1.4, 1.1, 1.2, 1.6, 1.3, 2.5, 2, 2.4, 1.1, 2.1, 1.7, 1.5, 1.3, 1.2, 1, 1.1];
pt = [0.34, 0.23, 0.31, 0.25, 0.21, 0.31, 0.35, 0.28];
st = [19.04, 9.2, 17.36, 12.25, 11.13, 15.81, 18.55, 13.44];
arc = {<1, 0, 1, 1, 0, 0, 0, [1, 1, 1, 1, 1, 1, 1, 1]>, <2, 1, 2, 1, 0, 0, 0, [1, 1, 1, 1, 1, 1, 1, 1]>, <3, 2, 3, 1, 0, 0, 0, [1, 1, 1, 1, 1, 1, 1, 1]>, <4, 3, 4, 1, 0, 0, 0, [1, 1, 1, 1, 1, 1, 1, 1]>, <5, 4, 5, 1, 0, 0, 0, [1, 1, 1, 1, 1, 1, 1, 1]>, <6, 5, 6, 1, 0, 0, 0, [1, 1, 1, 1, 1, 1, 1, 1]>, <7, 6, 7, 1, 0, 0, 0, [1, 1, 1, 1, 1, 1, 1, 1]>, <8, 7, 8, 1, 0, 0, 0, [1, 1, 1, 1, 1, 1, 1, 1]>, <9, 8, 9, 1, 0, 0, 0, [1, 1, 1, 1, 1, 1, 1, 1]>, <10, 9, 10, 1, 0, 0, 0, [1, 1, 1, 1, 1, 1, 1, 1]>, <11, 10, 11, 1, 0, 0, 0, [1, 1, 1, 1, 1, 1, 1, 1]>, <12, 11, 12, 1, 0, 0, 0, [1, 1, 1, 1, 1, 1, 1, 1]>, <13, 12, 13, 1, 0, 0, 0, [1, 1, 1, 1, 1, 1, 1, 1]>, <14, 13, 14, 1, 0, 0, 0, [1, 1, 1, 1, 1, 1, 1, 1]>, <15, 14, 15, 1, 0, 0, 0, [1, 1, 1, 1, 1, 1, 1, 1]>, <16, 15, 16, 1, 0, 0, 0, [1, 1, 1, 1, 1, 1, 1, 1]>, <17, 16, 17, 1, 0, 0, 0, [1, 1, 1, 1, 1, 1, 1, 1]>, <18, 17, 18, 1, 0, 0, 0, [1, 1, 1, 1, 1, 1, 1, 1]>, <19, 18, 19, 1, 0, 0, 0, [1, 1, 1, 1, 1, 1, 1, 1]>, <20, 19, 20, 1, 0, 0, 0, [1, 1, 1, 1, 1, 1, 1, 1]>, <21, 20, 21, 1, 0, 0, 0, [1, 1, 1, 1, 1, 1, 1, 1]>, <22, 21, 22, 1, 0, 0, 0, [1, 1, 1, 1, 1, 1, 1, 1]>, <23, 22, 23, 1, 0, 0, 0, [1, 1, 1, 1, 1, 1, 1, 1]>, <24, 23, 24, 1, 0, 0, 0, [1, 1, 1, 1, 1, 1, 1, 1]>, <25, 24, 25, 1, 0, 0, 0, [1, 1, 1, 1, 1, 1, 1, 1]>, <26, 25, 26, 1, 0, 0, 0, [1, 1, 1, 1, 1, 1, 1, 1]>, <27, 26, 27, 1, 0, 0, 0, [1, 1, 1, 1, 1, 1, 1, 1]>, <28, 27, 28, 1, 0, 0, 0, [1, 1, 1, 1, 1, 1, 1, 1]>, <29, 28, 29, 1, 0, 0, 0, [1, 1, 1, 1, 1, 1, 1, 1]>, <30, 2, 12, 10, 1, 0, 0, [0, 0, 1, 1, 0, 0, 0, 0]>, <31, 3, 13, 10, 1, 0, 0, [0, 0, 1, 1, 0, 0, 0, 0]>, <32, 4, 14, 10, 1, 0, 0, [0, 0, 1, 1, 0, 0, 0, 0]>, <33, 5, 15, 10, 1, 0, 0, [0, 0, 1, 1, 0, 0, 0, 0]>, <34, 10, 20, 10, 1, 0, 0, [0, 0, 1, 1, 0, 0, 0, 0]>, <35, 11, 21, 10, 1, 0, 0, [0, 0, 1, 1, 0, 0, 0, 0]>, <36, 12, 22, 10, 1, 0, 0, [0, 0, 1, 1, 0, 0, 0, 0]>, <37, 14, 24, 10, 1, 0, 0, [0, 0, 1, 1, 0, 0, 0, 0]>, <38, 15, 25, 10, 1, 0, 0, [0, 0, 1, 1, 0, 0, 0, 0]>, <39, 16, 26, 10, 1, 0, 0, [0, 0, 1, 1, 0, 0, 0, 0]>, <40, 17, 27, 10, 1, 0, 0, [0, 0, 1, 1, 0, 0, 0, 0]>, <41, 18, 28, 10, 1, 0, 0, [0, 0, 1, 1, 0, 0, 0, 0]>, <42, 19, 29, 10, 1, 0, 0, [0, 0, 1, 1, 0, 0, 0, 0]>, <43, 1, 12, 11, 2, 1, 0, [0, 0, 1, 1, 0, 0, 0, 0]>, <44, 2, 13, 11, 2, 1, 0, [0, 0, 1, 1, 0, 0, 0, 0]>, <45, 3, 14, 11, 2, 1, 0, [0, 0, 1, 1, 0, 0, 0, 0]>, <46, 4, 15, 11, 2, 1, 0, [0, 0, 1, 1, 0, 0, 0, 0]>, <47, 5, 16, 11, 2, 1, 0, [0, 0, 1, 1, 0, 0, 0, 0]>, <48, 9, 20, 11, 2, 1, 0, [0, 0, 1, 1, 0, 0, 0, 0]>, <49, 10, 21, 11, 2, 1, 0, [0, 0, 1, 1, 0, 0, 0, 0]>, <50, 11, 22, 11, 2, 1, 0, [0, 0, 1, 1, 0, 0, 0, 0]>, <51, 12, 23, 11, 2, 1, 0, [0, 0, 1, 1, 0, 0, 0, 0]>, <52, 13, 24, 11, 2, 1, 0, [0, 0, 1, 1, 0, 0, 0, 0]>, <53, 14, 25, 11, 2, 1, 0, [0, 0, 1, 1, 0, 0, 0, 0]>, <54, 15, 26, 11, 2, 1, 0, [0, 0, 1, 1, 0, 0, 0, 0]>, <55, 16, 27, 11, 2, 1, 0, [0, 0, 1, 1, 0, 0, 0, 0]>, <56, 17, 28, 11, 2, 1, 0, [0, 0, 1, 1, 0, 0, 0, 0]>, <57, 18, 29, 11, 2, 1, 0, [0, 0, 1, 1, 0, 0, 0, 0]>, <58, 1, 12, 11, 3, 1, 0, [0, 0, 0, 0, 1, 1, 0, 0]>, <59, 2, 13, 11, 3, 1, 0, [0, 0, 0, 0, 1, 1, 0, 0]>, <60, 3, 14, 11, 3, 1, 0, [0, 0, 0, 0, 1, 1, 0, 0]>, <61, 4, 15, 11, 3, 1, 0, [0, 0, 0, 0, 1, 1, 0, 0]>, <62, 5, 16, 11, 3, 1, 0, [0, 0, 0, 0, 1, 1, 0, 0]>, <63, 9, 20, 11, 3, 1, 0, [0, 0, 0, 0, 1, 1, 0, 0]>, <64, 10, 21, 11, 3, 1, 0, [0, 0, 0, 0, 1, 1, 0, 0]>, <65, 11, 22, 11, 3, 1, 0, [0, 0, 0, 0, 1, 1, 0, 0]>, <66, 12, 23, 11, 3, 1, 0, [0, 0, 0, 0, 1, 1, 0, 0]>, <67, 13, 24, 11, 3, 1, 0, [0, 0, 0, 0, 1, 1, 0, 0]>, <68, 14, 25, 11, 3, 1, 0, [0, 0, 0, 0, 1, 1, 0, 0]>, <69, 15, 26, 11, 3, 1, 0, [0, 0, 0, 0, 1, 1, 0, 0]>, <70, 16, 27, 11, 3, 1, 0, [0, 0, 0, 0, 1, 1, 0, 0]>, <71, 17, 28, 11, 3, 1, 0, [0, 0, 0, 0, 1, 1, 0, 0]>, <72, 18, 29, 11, 3, 1, 0, [0, 0, 0, 0, 1, 1, 0, 0]>, <73, 0, 14, 14, 4, 0, 0, [1, 0, 0, 0, 0, 0, 0, 1]>, <74, 1, 15, 14, 4, 0, 0, [1, 0, 0, 0, 0, 0, 0, 1]>, <75, 2, 16, 14, 4, 0, 0, [1, 0, 0, 0, 0, 0, 0, 1]>, <76, 3, 17, 14, 4, 0, 0, [1, 0, 0, 0, 0, 0, 0, 1]>, <77, 4, 18, 14, 4, 0, 0, [1, 0, 0, 0, 0, 0, 0, 1]>, <78, 5, 19, 14, 4, 0, 0, [1, 0, 0, 0, 0, 0, 0, 1]>, <79, 6, 20, 14, 4, 0, 0, [1, 0, 0, 0, 0, 0, 0, 1]>, <80, 7, 21, 14, 4, 0, 0, [1, 0, 0, 0, 0, 0, 0, 1]>, <81, 8, 22, 14, 4, 0, 0, [1, 0, 0, 0, 0, 0, 0, 1]>, <82, 9, 23, 14, 4, 0, 0, [1, 0, 0, 0, 0, 0, 0, 1]>, <83, 10, 24, 14, 4, 0, 0, [1, 0, 0, 0, 0, 0, 0, 1]>, <84, 11, 25, 14, 4, 0, 0, [1, 0, 0, 0, 0, 0, 0, 1]>, <85, 12, 26, 14, 4, 0, 0, [1, 0, 0, 0, 0, 0, 0, 1]>, <86, 13, 27, 14, 4, 0, 0, [1, 0, 0, 0, 0, 0, 0, 1]>, <87, 14, 28, 14, 4, 0, 0, [1, 0, 0, 0, 0, 0, 0, 1]>, <88, 15, 29, 14, 4, 0, 0, [1, 0, 0, 0, 0, 0, 0, 1]>, <89, 0, 15, 15, 5, 0, 1, [0, 0, 0, 0, 0, 0, 1, 1]>, <90, 1, 16, 15, 5, 0, 1, [0, 0, 0, 0, 0, 0, 1, 1]>, <91, 2, 17, 15, 5, 0, 1, [0, 0, 0, 0, 0, 0, 1, 1]>, <92, 3, 18, 15, 5, 0, 1, [0, 0, 0, 0, 0, 0, 1, 1]>, <93, 4, 19, 15, 5, 0, 1, [0, 0, 0, 0, 0, 0, 1, 1]>, <94, 5, 20, 15, 5, 0, 1, [0, 0, 0, 0, 0, 0, 1, 1]>, <95, 6, 21, 15, 5, 0, 1, [0, 0, 0, 0, 0, 0, 1, 1]>, <96, 7, 22, 15, 5, 0, 1, [0, 0, 0, 0, 0, 0, 1, 1]>, <97, 8, 23, 15, 5, 0, 1, [0, 0, 0, 0, 0, 0, 1, 1]>, <98, 9, 24, 15, 5, 0, 1, [0, 0, 0, 0, 0, 0, 1, 1]>, <99, 10, 25, 15, 5, 0, 1, [0, 0, 0, 0, 0, 0, 1, 1]>, <100, 11, 26, 15, 5, 0, 1, [0, 0, 0, 0, 0, 0, 1, 1]>, <101, 12, 27, 15, 5, 0, 1, [0, 0, 0, 0, 0, 0, 1, 1]>, <102, 13, 28, 15, 5, 0, 1, [0, 0, 0, 0, 0, 0, 1, 1]>, <103, 14, 29, 15, 5, 0, 1, [0, 0, 0, 0, 0, 0, 1, 1]>, <104, 0, 14, 14, 6, 0, 1, [0, 0, 0, 1, 1, 0, 0, 0]>, <105, 1, 15, 14, 6, 0, 1, [0, 0, 0, 1, 1, 0, 0, 0]>, <106, 2, 16, 14, 6, 0, 1, [0, 0, 0, 1, 1, 0, 0, 0]>, <107, 3, 17, 14, 6, 0, 1, [0, 0, 0, 1, 1, 0, 0, 0]>, <108, 4, 18, 14, 6, 0, 1, [0, 0, 0, 1, 1, 0, 0, 0]>, <109, 5, 19, 14, 6, 0, 1, [0, 0, 0, 1, 1, 0, 0, 0]>, <110, 6, 20, 14, 6, 0, 1, [0, 0, 0, 1, 1, 0, 0, 0]>, <111, 7, 21, 14, 6, 0, 1, [0, 0, 0, 1, 1, 0, 0, 0]>, <112, 8, 22, 14, 6, 0, 1, [0, 0, 0, 1, 1, 0, 0, 0]>, <113, 9, 23, 14, 6, 0, 1, [0, 0, 0, 1, 1, 0, 0, 0]>, <114, 10, 24, 14, 6, 0, 1, [0, 0, 0, 1, 1, 0, 0, 0]>, <115, 11, 25, 14, 6, 0, 1, [0, 0, 0, 1, 1, 0, 0, 0]>, <116, 12, 26, 14, 6, 0, 1, [0, 0, 0, 1, 1, 0, 0, 0]>, <117, 13, 27, 14, 6, 0, 1, [0, 0, 0, 1, 1, 0, 0, 0]>, <118, 14, 28, 14, 6, 0, 1, [0, 0, 0, 1, 1, 0, 0, 0]>, <119, 15, 29, 14, 6, 0, 1, [0, 0, 0, 1, 1, 0, 0, 0]>, <120, 2, 12, 10, 7, 1, 0, [0, 1, 1, 0, 0, 0, 0, 0]>, <121, 3, 13, 10, 7, 1, 0, [0, 1, 1, 0, 0, 0, 0, 0]>, <122, 4, 14, 10, 7, 1, 0, [0, 1, 1, 0, 0, 0, 0, 0]>, <123, 5, 15, 10, 7, 1, 0, [0, 1, 1, 0, 0, 0, 0, 0]>, <124, 10, 20, 10, 7, 1, 0, [0, 1, 1, 0, 0, 0, 0, 0]>, <125, 11, 21, 10, 7, 1, 0, [0, 1, 1, 0, 0, 0, 0, 0]>, <126, 12, 22, 10, 7, 1, 0, [0, 1, 1, 0, 0, 0, 0, 0]>, <127, 14, 24, 10, 7, 1, 0, [0, 1, 1, 0, 0, 0, 0, 0]>, <128, 15, 25, 10, 7, 1, 0, [0, 1, 1, 0, 0, 0, 0, 0]>, <129, 16, 26, 10, 7, 1, 0, [0, 1, 1, 0, 0, 0, 0, 0]>, <130, 17, 27, 10, 7, 1, 0, [0, 1, 1, 0, 0, 0, 0, 0]>, <131, 18, 28, 10, 7, 1, 0, [0, 1, 1, 0, 0, 0, 0, 0]>, <132, 19, 29, 10, 7, 1, 0, [0, 1, 1, 0, 0, 0, 0, 0]>, <133, 0, 14, 14, 8, 0, 1, [1, 0, 0, 0, 0, 0, 0, 1]>, <134, 1, 15, 14, 8, 0, 1, [1, 0, 0, 0, 0, 0, 0, 1]>, <135, 2, 16, 14, 8, 0, 1, [1, 0, 0, 0, 0, 0, 0, 1]>, <136, 3, 17, 14, 8, 0, 1, [1, 0, 0, 0, 0, 0, 0, 1]>, <137, 4, 18, 14, 8, 0, 1, [1, 0, 0, 0, 0, 0, 0, 1]>, <138, 5, 19, 14, 8, 0, 1, [1, 0, 0, 0, 0, 0, 0, 1]>, <139, 6, 20, 14, 8, 0, 1, [1, 0, 0, 0, 0, 0, 0, 1]>, <140, 7, 21, 14, 8, 0, 1, [1, 0, 0, 0, 0, 0, 0, 1]>, <141, 8, 22, 14, 8, 0, 1, [1, 0, 0, 0, 0, 0, 0, 1]>, <142, 9, 23, 14, 8, 0, 1, [1, 0, 0, 0, 0, 0, 0, 1]>, <143, 10, 24, 14, 8, 0, 1, [1, 0, 0, 0, 0, 0, 0, 1]>, <144, 11, 25, 14, 8, 0, 1, [1, 0, 0, 0, 0, 0, 0, 1]>, <145, 12, 26, 14, 8, 0, 1, [1, 0, 0, 0, 0, 0, 0, 1]>, <146, 13, 27, 14, 8, 0, 1, [1, 0, 0, 0, 0, 0, 0, 1]>, <147, 14, 28, 14, 8, 0, 1, [1, 0, 0, 0, 0, 0, 0, 1]>, <148, 15, 29, 14, 8, 0, 1, [1, 0, 0, 0, 0, 0, 0, 1]>, <149, 0, 14, 14, 9, 1, 0, [0, 0, 0, 0, 0, 1, 1, 0]>, <150, 1, 15, 14, 9, 1, 0, [0, 0, 0, 0, 0, 1, 1, 0]>, <151, 2, 16, 14, 9, 1, 0, [0, 0, 0, 0, 0, 1, 1, 0]>, <152, 3, 17, 14, 9, 1, 0, [0, 0, 0, 0, 0, 1, 1, 0]>, <153, 4, 18, 14, 9, 1, 0, [0, 0, 0, 0, 0, 1, 1, 0]>, <154, 5, 19, 14, 9, 1, 0, [0, 0, 0, 0, 0, 1, 1, 0]>, <155, 6, 20, 14, 9, 1, 0, [0, 0, 0, 0, 0, 1, 1, 0]>, <156, 7, 21, 14, 9, 1, 0, [0, 0, 0, 0, 0, 1, 1, 0]>, <157, 8, 22, 14, 9, 1, 0, [0, 0, 0, 0, 0, 1, 1, 0]>, <158, 9, 23, 14, 9, 1, 0, [0, 0, 0, 0, 0, 1, 1, 0]>, <159, 10, 24, 14, 9, 1, 0, [0, 0, 0, 0, 0, 1, 1, 0]>, <160, 11, 25, 14, 9, 1, 0, [0, 0, 0, 0, 0, 1, 1, 0]>, <161, 12, 26, 14, 9, 1, 0, [0, 0, 0, 0, 0, 1, 1, 0]>, <162, 13, 27, 14, 9, 1, 0, [0, 0, 0, 0, 0, 1, 1, 0]>, <163, 14, 28, 14, 9, 1, 0, [0, 0, 0, 0, 0, 1, 1, 0]>, <164, 15, 29, 14, 9, 1, 0, [0, 0, 0, 0, 0, 1, 1, 0]>, <165, 0, 13, 13, 10, 1, 0, [0, 0, 0, 0, 0, 1, 1, 0]>, <166, 1, 14, 13, 10, 1, 0, [0, 0, 0, 0, 0, 1, 1, 0]>, <167, 2, 15, 13, 10, 1, 0, [0, 0, 0, 0, 0, 1, 1, 0]>, <168, 3, 16, 13, 10, 1, 0, [0, 0, 0, 0, 0, 1, 1, 0]>, <169, 4, 17, 13, 10, 1, 0, [0, 0, 0, 0, 0, 1, 1, 0]>, <170, 5, 18, 13, 10, 1, 0, [0, 0, 0, 0, 0, 1, 1, 0]>, <171, 7, 20, 13, 10, 1, 0, [0, 0, 0, 0, 0, 1, 1, 0]>, <172, 8, 21, 13, 10, 1, 0, [0, 0, 0, 0, 0, 1, 1, 0]>, <173, 9, 22, 13, 10, 1, 0, [0, 0, 0, 0, 0, 1, 1, 0]>, <174, 10, 23, 13, 10, 1, 0, [0, 0, 0, 0, 0, 1, 1, 0]>, <175, 11, 24, 13, 10, 1, 0, [0, 0, 0, 0, 0, 1, 1, 0]>, <176, 12, 25, 13, 10, 1, 0, [0, 0, 0, 0, 0, 1, 1, 0]>, <177, 13, 26, 13, 10, 1, 0, [0, 0, 0, 0, 0, 1, 1, 0]>, <178, 14, 27, 13, 10, 1, 0, [0, 0, 0, 0, 0, 1, 1, 0]>, <179, 15, 28, 13, 10, 1, 0, [0, 0, 0, 0, 0, 1, 1, 0]>, <180, 16, 29, 13, 10, 1, 0, [0, 0, 0, 0, 0, 1, 1, 0]>, <181, 0, 15, 15, 11, 0, 0, [0, 0, 0, 0, 0, 1, 1, 0]>, <182, 1, 16, 15, 11, 0, 0, [0, 0, 0, 0, 0, 1, 1, 0]>, <183, 2, 17, 15, 11, 0, 0, [0, 0, 0, 0, 0, 1, 1, 0]>, <184, 3, 18, 15, 11, 0, 0, [0, 0, 0, 0, 0, 1, 1, 0]>, <185, 4, 19, 15, 11, 0, 0, [0, 0, 0, 0, 0, 1, 1, 0]>, <186, 5, 20, 15, 11, 0, 0, [0, 0, 0, 0, 0, 1, 1, 0]>, <187, 6, 21, 15, 11, 0, 0, [0, 0, 0, 0, 0, 1, 1, 0]>, <188, 7, 22, 15, 11, 0, 0, [0, 0, 0, 0, 0, 1, 1, 0]>, <189, 8, 23, 15, 11, 0, 0, [0, 0, 0, 0, 0, 1, 1, 0]>, <190, 9, 24, 15, 11, 0, 0, [0, 0, 0, 0, 0, 1, 1, 0]>, <191, 10, 25, 15, 11, 0, 0, [0, 0, 0, 0, 0, 1, 1, 0]>, <192, 11, 26, 15, 11, 0, 0, [0, 0, 0, 0, 0, 1, 1, 0]>, <193, 12, 27, 15, 11, 0, 0, [0, 0, 0, 0, 0, 1, 1, 0]>, <194, 13, 28, 15, 11, 0, 0, [0, 0, 0, 0, 0, 1, 1, 0]>, <195, 14, 29, 15, 11, 0, 0, [0, 0, 0, 0, 0, 1, 1, 0]>, <196, 0, 14, 14, 12, 1, 0, [0, 1, 1, 0, 0, 0, 0, 0]>, <197, 1, 15, 14, 12, 1, 0, [0, 1, 1, 0, 0, 0, 0, 0]>, <198, 2, 16, 14, 12, 1, 0, [0, 1, 1, 0, 0, 0, 0, 0]>, <199, 3, 17, 14, 12, 1, 0, [0, 1, 1, 0, 0, 0, 0, 0]>, <200, 4, 18, 14, 12, 1, 0, [0, 1, 1, 0, 0, 0, 0, 0]>, <201, 5, 19, 14, 12, 1, 0, [0, 1, 1, 0, 0, 0, 0, 0]>, <202, 6, 20, 14, 12, 1, 0, [0, 1, 1, 0, 0, 0, 0, 0]>, <203, 7, 21, 14, 12, 1, 0, [0, 1, 1, 0, 0, 0, 0, 0]>, <204, 8, 22, 14, 12, 1, 0, [0, 1, 1, 0, 0, 0, 0, 0]>, <205, 9, 23, 14, 12, 1, 0, [0, 1, 1, 0, 0, 0, 0, 0]>, <206, 10, 24, 14, 12, 1, 0, [0, 1, 1, 0, 0, 0, 0, 0]>, <207, 11, 25, 14, 12, 1, 0, [0, 1, 1, 0, 0, 0, 0, 0]>, <208, 12, 26, 14, 12, 1, 0, [0, 1, 1, 0, 0, 0, 0, 0]>, <209, 13, 27, 14, 12, 1, 0, [0, 1, 1, 0, 0, 0, 0, 0]>, <210, 14, 28, 14, 12, 1, 0, [0, 1, 1, 0, 0, 0, 0, 0]>, <211, 15, 29, 14, 12, 1, 0, [0, 1, 1, 0, 0, 0, 0, 0]>, <212, 0, 12, 12, 13, 0, 0, [0, 0, 0, 1, 1, 0, 0, 0]>, <213, 1, 13, 12, 13, 0, 0, [0, 0, 0, 1, 1, 0, 0, 0]>, <214, 2, 14, 12, 13, 0, 0, [0, 0, 0, 1, 1, 0, 0, 0]>, <215, 3, 15, 12, 13, 0, 0, [0, 0, 0, 1, 1, 0, 0, 0]>, <216, 4, 16, 12, 13, 0, 0, [0, 0, 0, 1, 1, 0, 0, 0]>, <217, 5, 17, 12, 13, 0, 0, [0, 0, 0, 1, 1, 0, 0, 0]>, <218, 8, 20, 12, 13, 0, 0, [0, 0, 0, 1, 1, 0, 0, 0]>, <219, 9, 21, 12, 13, 0, 0, [0, 0, 0, 1, 1, 0, 0, 0]>, <220, 10, 22, 12, 13, 0, 0, [0, 0, 0, 1, 1, 0, 0, 0]>, <221, 11, 23, 12, 13, 0, 0, [0, 0, 0, 1, 1, 0, 0, 0]>, <222, 12, 24, 12, 13, 0, 0, [0, 0, 0, 1, 1, 0, 0, 0]>, <223, 13, 25, 12, 13, 0, 0, [0, 0, 0, 1, 1, 0, 0, 0]>, <224, 14, 26, 12, 13, 0, 0, [0, 0, 0, 1, 1, 0, 0, 0]>, <225, 15, 27, 12, 13, 0, 0, [0, 0, 0, 1, 1, 0, 0, 0]>, <226, 16, 28, 12, 13, 0, 0, [0, 0, 0, 1, 1, 0, 0, 0]>, <227, 17, 29, 12, 13, 0, 0, [0, 0, 0, 1, 1, 0, 0, 0]>, <228, 1, 12, 11, 14, 0, 0, [0, 1, 1, 0, 0, 0, 0, 0]>, <229, 2, 13, 11, 14, 0, 0, [0, 1, 1, 0, 0, 0, 0, 0]>, <230, 3, 14, 11, 14, 0, 0, [0, 1, 1, 0, 0, 0, 0, 0]>, <231, 4, 15, 11, 14, 0, 0, [0, 1, 1, 0, 0, 0, 0, 0]>, <232, 5, 16, 11, 14, 0, 0, [0, 1, 1, 0, 0, 0, 0, 0]>, <233, 9, 20, 11, 14, 0, 0, [0, 1, 1, 0, 0, 0, 0, 0]>, <234, 10, 21, 11, 14, 0, 0, [0, 1, 1, 0, 0, 0, 0, 0]>, <235, 11, 22, 11, 14, 0, 0, [0, 1, 1, 0, 0, 0, 0, 0]>, <236, 12, 23, 11, 14, 0, 0, [0, 1, 1, 0, 0, 0, 0, 0]>, <237, 13, 24, 11, 14, 0, 0, [0, 1, 1, 0, 0, 0, 0, 0]>, <238, 14, 25, 11, 14, 0, 0, [0, 1, 1, 0, 0, 0, 0, 0]>, <239, 15, 26, 11, 14, 0, 0, [0, 1, 1, 0, 0, 0, 0, 0]>, <240, 16, 27, 11, 14, 0, 0, [0, 1, 1, 0, 0, 0, 0, 0]>, <241, 17, 28, 11, 14, 0, 0, [0, 1, 1, 0, 0, 0, 0, 0]>, <242, 18, 29, 11, 14, 0, 0, [0, 1, 1, 0, 0, 0, 0, 0]>, <243, 0, 14, 14, 15, 0, 1, [0, 0, 0, 0, 0, 0, 1, 1]>, <244, 1, 15, 14, 15, 0, 1, [0, 0, 0, 0, 0, 0, 1, 1]>, <245, 2, 16, 14, 15, 0, 1, [0, 0, 0, 0, 0, 0, 1, 1]>, <246, 3, 17, 14, 15, 0, 1, [0, 0, 0, 0, 0, 0, 1, 1]>, <247, 4, 18, 14, 15, 0, 1, [0, 0, 0, 0, 0, 0, 1, 1]>, <248, 5, 19, 14, 15, 0, 1, [0, 0, 0, 0, 0, 0, 1, 1]>, <249, 6, 20, 14, 15, 0, 1, [0, 0, 0, 0, 0, 0, 1, 1]>, <250, 7, 21, 14, 15, 0, 1, [0, 0, 0, 0, 0, 0, 1, 1]>, <251, 8, 22, 14, 15, 0, 1, [0, 0, 0, 0, 0, 0, 1, 1]>, <252, 9, 23, 14, 15, 0, 1, [0, 0, 0, 0, 0, 0, 1, 1]>, <253, 10, 24, 14, 15, 0, 1, [0, 0, 0, 0, 0, 0, 1, 1]>, <254, 11, 25, 14, 15, 0, 1, [0, 0, 0, 0, 0, 0, 1, 1]>, <255, 12, 26, 14, 15, 0, 1, [0, 0, 0, 0, 0, 0, 1, 1]>, <256, 13, 27, 14, 15, 0, 1, [0, 0, 0, 0, 0, 0, 1, 1]>, <257, 14, 28, 14, 15, 0, 1, [0, 0, 0, 0, 0, 0, 1, 1]>, <258, 15, 29, 14, 15, 0, 1, [0, 0, 0, 0, 0, 0, 1, 1]>, <259, 0, 12, 12, 16, 0, 1, [0, 0, 0, 0, 0, 1, 1, 0]>, <260, 1, 13, 12, 16, 0, 1, [0, 0, 0, 0, 0, 1, 1, 0]>, <261, 2, 14, 12, 16, 0, 1, [0, 0, 0, 0, 0, 1, 1, 0]>, <262, 3, 15, 12, 16, 0, 1, [0, 0, 0, 0, 0, 1, 1, 0]>, <263, 4, 16, 12, 16, 0, 1, [0, 0, 0, 0, 0, 1, 1, 0]>, <264, 5, 17, 12, 16, 0, 1, [0, 0, 0, 0, 0, 1, 1, 0]>, <265, 8, 20, 12, 16, 0, 1, [0, 0, 0, 0, 0, 1, 1, 0]>, <266, 9, 21, 12, 16, 0, 1, [0, 0, 0, 0, 0, 1, 1, 0]>, <267, 10, 22, 12, 16, 0, 1, [0, 0, 0, 0, 0, 1, 1, 0]>, <268, 11, 23, 12, 16, 0, 1, [0, 0, 0, 0, 0, 1, 1, 0]>, <269, 12, 24, 12, 16, 0, 1, [0, 0, 0, 0, 0, 1, 1, 0]>, <270, 13, 25, 12, 16, 0, 1, [0, 0, 0, 0, 0, 1, 1, 0]>, <271, 14, 26, 12, 16, 0, 1, [0, 0, 0, 0, 0, 1, 1, 0]>, <272, 15, 27, 12, 16, 0, 1, [0, 0, 0, 0, 0, 1, 1, 0]>, <273, 16, 28, 12, 16, 0, 1, [0, 0, 0, 0, 0, 1, 1, 0]>, <274, 17, 29, 12, 16, 0, 1, [0, 0, 0, 0, 0, 1, 1, 0]>, <275, 1, 12, 11, 17, 0, 0, [0, 0, 0, 1, 1, 0, 0, 0]>, <276, 2, 13, 11, 17, 0, 0, [0, 0, 0, 1, 1, 0, 0, 0]>, <277, 3, 14, 11, 17, 0, 0, [0, 0, 0, 1, 1, 0, 0, 0]>, <278, 4, 15, 11, 17, 0, 0, [0, 0, 0, 1, 1, 0, 0, 0]>, <279, 5, 16, 11, 17, 0, 0, [0, 0, 0, 1, 1, 0, 0, 0]>, <280, 9, 20, 11, 17, 0, 0, [0, 0, 0, 1, 1, 0, 0, 0]>, <281, 10, 21, 11, 17, 0, 0, [0, 0, 0, 1, 1, 0, 0, 0]>, <282, 11, 22, 11, 17, 0, 0, [0, 0, 0, 1, 1, 0, 0, 0]>, <283, 12, 23, 11, 17, 0, 0, [0, 0, 0, 1, 1, 0, 0, 0]>, <284, 13, 24, 11, 17, 0, 0, [0, 0, 0, 1, 1, 0, 0, 0]>, <285, 14, 25, 11, 17, 0, 0, [0, 0, 0, 1, 1, 0, 0, 0]>, <286, 15, 26, 11, 17, 0, 0, [0, 0, 0, 1, 1, 0, 0, 0]>, <287, 16, 27, 11, 17, 0, 0, [0, 0, 0, 1, 1, 0, 0, 0]>, <288, 17, 28, 11, 17, 0, 0, [0, 0, 0, 1, 1, 0, 0, 0]>, <289, 18, 29, 11, 17, 0, 0, [0, 0, 0, 1, 1, 0, 0, 0]>, <290, 1, 12, 11, 18, 0, 0, [1, 0, 0, 0, 0, 0, 0, 1]>, <291, 2, 13, 11, 18, 0, 0, [1, 0, 0, 0, 0, 0, 0, 1]>, <292, 3, 14, 11, 18, 0, 0, [1, 0, 0, 0, 0, 0, 0, 1]>, <293, 4, 15, 11, 18, 0, 0, [1, 0, 0, 0, 0, 0, 0, 1]>, <294, 5, 16, 11, 18, 0, 0, [1, 0, 0, 0, 0, 0, 0, 1]>, <295, 9, 20, 11, 18, 0, 0, [1, 0, 0, 0, 0, 0, 0, 1]>, <296, 10, 21, 11, 18, 0, 0, [1, 0, 0, 0, 0, 0, 0, 1]>, <297, 11, 22, 11, 18, 0, 0, [1, 0, 0, 0, 0, 0, 0, 1]>, <298, 12, 23, 11, 18, 0, 0, [1, 0, 0, 0, 0, 0, 0, 1]>, <299, 13, 24, 11, 18, 0, 0, [1, 0, 0, 0, 0, 0, 0, 1]>, <300, 14, 25, 11, 18, 0, 0, [1, 0, 0, 0, 0, 0, 0, 1]>, <301, 15, 26, 11, 18, 0, 0, [1, 0, 0, 0, 0, 0, 0, 1]>, <302, 16, 27, 11, 18, 0, 0, [1, 0, 0, 0, 0, 0, 0, 1]>, <303, 17, 28, 11, 18, 0, 0, [1, 0, 0, 0, 0, 0, 0, 1]>, <304, 18, 29, 11, 18, 0, 0, [1, 0, 0, 0, 0, 0, 0, 1]>, <305, 0, 14, 14, 19, 0, 0, [1, 1, 0, 0, 0, 0, 0, 0]>, <306, 1, 15, 14, 19, 0, 0, [1, 1, 0, 0, 0, 0, 0, 0]>, <307, 2, 16, 14, 19, 0, 0, [1, 1, 0, 0, 0, 0, 0, 0]>, <308, 3, 17, 14, 19, 0, 0, [1, 1, 0, 0, 0, 0, 0, 0]>, <309, 4, 18, 14, 19, 0, 0, [1, 1, 0, 0, 0, 0, 0, 0]>, <310, 5, 19, 14, 19, 0, 0, [1, 1, 0, 0, 0, 0, 0, 0]>, <311, 6, 20, 14, 19, 0, 0, [1, 1, 0, 0, 0, 0, 0, 0]>, <312, 7, 21, 14, 19, 0, 0, [1, 1, 0, 0, 0, 0, 0, 0]>, <313, 8, 22, 14, 19, 0, 0, [1, 1, 0, 0, 0, 0, 0, 0]>, <314, 9, 23, 14, 19, 0, 0, [1, 1, 0, 0, 0, 0, 0, 0]>, <315, 10, 24, 14, 19, 0, 0, [1, 1, 0, 0, 0, 0, 0, 0]>, <316, 11, 25, 14, 19, 0, 0, [1, 1, 0, 0, 0, 0, 0, 0]>, <317, 12, 26, 14, 19, 0, 0, [1, 1, 0, 0, 0, 0, 0, 0]>, <318, 13, 27, 14, 19, 0, 0, [1, 1, 0, 0, 0, 0, 0, 0]>, <319, 14, 28, 14, 19, 0, 0, [1, 1, 0, 0, 0, 0, 0, 0]>, <320, 15, 29, 14, 19, 0, 0, [1, 1, 0, 0, 0, 0, 0, 0]>, <321, 0, 12, 12, 20, 0, 1, [0, 0, 0, 1, 1, 0, 0, 0]>, <322, 1, 13, 12, 20, 0, 1, [0, 0, 0, 1, 1, 0, 0, 0]>, <323, 2, 14, 12, 20, 0, 1, [0, 0, 0, 1, 1, 0, 0, 0]>, <324, 3, 15, 12, 20, 0, 1, [0, 0, 0, 1, 1, 0, 0, 0]>, <325, 4, 16, 12, 20, 0, 1, [0, 0, 0, 1, 1, 0, 0, 0]>, <326, 5, 17, 12, 20, 0, 1, [0, 0, 0, 1, 1, 0, 0, 0]>, <327, 8, 20, 12, 20, 0, 1, [0, 0, 0, 1, 1, 0, 0, 0]>, <328, 9, 21, 12, 20, 0, 1, [0, 0, 0, 1, 1, 0, 0, 0]>, <329, 10, 22, 12, 20, 0, 1, [0, 0, 0, 1, 1, 0, 0, 0]>, <330, 11, 23, 12, 20, 0, 1, [0, 0, 0, 1, 1, 0, 0, 0]>, <331, 12, 24, 12, 20, 0, 1, [0, 0, 0, 1, 1, 0, 0, 0]>, <332, 13, 25, 12, 20, 0, 1, [0, 0, 0, 1, 1, 0, 0, 0]>, <333, 14, 26, 12, 20, 0, 1, [0, 0, 0, 1, 1, 0, 0, 0]>, <334, 15, 27, 12, 20, 0, 1, [0, 0, 0, 1, 1, 0, 0, 0]>, <335, 16, 28, 12, 20, 0, 1, [0, 0, 0, 1, 1, 0, 0, 0]>, <336, 17, 29, 12, 20, 0, 1, [0, 0, 0, 1, 1, 0, 0, 0]>, <337, 0, 12, 12, 21, 1, 0, [0, 0, 1, 1, 0, 0, 0, 0]>, <338, 1, 13, 12, 21, 1, 0, [0, 0, 1, 1, 0, 0, 0, 0]>, <339, 2, 14, 12, 21, 1, 0, [0, 0, 1, 1, 0, 0, 0, 0]>, <340, 3, 15, 12, 21, 1, 0, [0, 0, 1, 1, 0, 0, 0, 0]>, <341, 4, 16, 12, 21, 1, 0, [0, 0, 1, 1, 0, 0, 0, 0]>, <342, 5, 17, 12, 21, 1, 0, [0, 0, 1, 1, 0, 0, 0, 0]>, <343, 8, 20, 12, 21, 1, 0, [0, 0, 1, 1, 0, 0, 0, 0]>, <344, 9, 21, 12, 21, 1, 0, [0, 0, 1, 1, 0, 0, 0, 0]>, <345, 10, 22, 12, 21, 1, 0, [0, 0, 1, 1, 0, 0, 0, 0]>, <346, 11, 23, 12, 21, 1, 0, [0, 0, 1, 1, 0, 0, 0, 0]>, <347, 12, 24, 12, 21, 1, 0, [0, 0, 1, 1, 0, 0, 0, 0]>, <348, 13, 25, 12, 21, 1, 0, [0, 0, 1, 1, 0, 0, 0, 0]>, <349, 14, 26, 12, 21, 1, 0, [0, 0, 1, 1, 0, 0, 0, 0]>, <350, 15, 27, 12, 21, 1, 0, [0, 0, 1, 1, 0, 0, 0, 0]>, <351, 16, 28, 12, 21, 1, 0, [0, 0, 1, 1, 0, 0, 0, 0]>, <352, 17, 29, 12, 21, 1, 0, [0, 0, 1, 1, 0, 0, 0, 0]>};
